(set-logic UF)
(declare-sort A$ 0)
(declare-sort Nat$ 0)
(declare-sort A_set$ 0)
(declare-sort A_a_fun$ 0)
(declare-sort Nat_set$ 0)
(declare-sort A_treeFI$ 0)
(declare-sort A_bool_fun$ 0)
(declare-sort Bool_stream$ 0)
(declare-sort Nat_nat_fun$ 0)
(declare-sort A_a_prod_set$ 0)
(declare-sort A_stream_set$ 0)
(declare-sort A_treeFI_set$ 0)
(declare-sort Nat_bool_fun$ 0)
(declare-sort A_a_a_fun_fun$ 0)
(declare-sort Bool_bool_fun$ 0)
(declare-sort A_a_a_prod_fun$ 0)
(declare-sort A_a_prod_a_fun$ 0)
(declare-sort A_a_stream_fun$ 0)
(declare-sort A_a_treeFI_fun$ 0)
(declare-sort A_stream_a_fun$ 0)
(declare-sort A_treeFI_a_fun$ 0)
(declare-sort Nat_stream_set$ 0)
(declare-sort A_a_prod_treeFI$ 0)
(declare-sort A_stream_treeFI$ 0)
(declare-sort A_treeFI_treeFI$ 0)
(declare-sort A_a_prod_bool_fun$ 0)
(declare-sort A_bool_stream_fun$ 0)
(declare-sort A_stream_bool_fun$ 0)
(declare-sort A_treeFI_bool_fun$ 0)
(declare-sort Nat_nat_stream_fun$ 0)
(declare-sort Nat_stream_nat_fun$ 0)
(declare-sort A_a_fun_a_a_fun_fun$ 0)
(declare-sort A_a_prod_stream_set$ 0)
(declare-sort A_a_prod_treeFI_set$ 0)
(declare-sort A_stream_stream_set$ 0)
(declare-sort A_stream_treeFI_set$ 0)
(declare-sort A_treeFI_list_a_fun$ 0)
(declare-sort A_treeFI_stream_set$ 0)
(declare-sort A_treeFI_treeFI_set$ 0)
(declare-sort A_a_a_a_prod_fun_fun$ 0)
(declare-sort A_a_a_prod_a_fun_fun$ 0)
(declare-sort A_a_prod_a_a_fun_fun$ 0)
(declare-sort A_a_stream_a_fun_fun$ 0)
(declare-sort Nat_nat_nat_prod_fun$ 0)
(declare-sort Nat_nat_prod_nat_fun$ 0)
(declare-sort A_a_prod_a_a_prod_fun$ 0)
(declare-sort A_stream_a_stream_fun$ 0)
(declare-sort A_stream_a_treeFI_fun$ 0)
(declare-sort A_treeFI_a_stream_fun$ 0)
(declare-sort A_treeFI_a_treeFI_fun$ 0)
(declare-sort Nat_nat_prod_bool_fun$ 0)
(declare-sort A_a_fun_a_bool_fun_fun$ 0)
(declare-sort A_a_stream_bool_fun_fun$ 0)
(declare-sort A_a_treeFI_bool_fun_fun$ 0)
(declare-sort A_a_prod_stream_bool_fun$ 0)
(declare-sort A_a_prod_treeFI_bool_fun$ 0)
(declare-sort A_stream_stream_bool_fun$ 0)
(declare-sort A_stream_treeFI_bool_fun$ 0)
(declare-sort A_treeFI_stream_bool_fun$ 0)
(declare-sort A_treeFI_treeFI_bool_fun$ 0)
(declare-sort A_a_treeFI_list_a_fun_fun$ 0)
(declare-sort A_bool_fun_a_bool_fun_fun$ 0)
(declare-sort Nat_nat_stream_stream_fun$ 0)
(declare-sort Nat_stream_nat_stream_fun$ 0)
(declare-sort A_a_a_prod_a_a_prod_fun_fun$ 0)
(declare-sort A_a_prod_a_a_a_prod_fun_fun$ 0)
(declare-sort A_a_prod_a_a_prod_a_fun_fun$ 0)
(declare-sort Bool_stream_bool_stream_fun$ 0)
(declare-sort Nat_nat_fun_nat_nat_fun_fun$ 0)
(declare-sort Nat_nat_nat_prod_stream_fun$ 0)
(declare-sort Nat_nat_prod_nat_stream_fun$ 0)
(declare-sort A_a_fun_a_bool_stream_fun_fun$ 0)
(declare-sort Nat_nat_prod_nat_nat_prod_fun$ 0)
(declare-sort A_stream_a_stream_bool_fun_fun$ 0)
(declare-sort A_stream_a_treeFI_bool_fun_fun$ 0)
(declare-sort Bool_bool_fun_bool_bool_fun_fun$ 0)
(declare-sort A_a_prod_a_a_prod_a_a_prod_fun_fun$ 0)
(declare-sort A_stream_a_stream_a_stream_fun_fun$ 0)
(declare-sort Nat_nat_fun_nat_nat_stream_fun_fun$ 0)
(declare-sort Nat_nat_prod_stream_nat_stream_fun$ 0)
(declare-sort Nat_nat_stream_fun_nat_nat_fun_fun$ 0)
(declare-sort Nat_stream_nat_nat_prod_stream_fun$ 0)
(declare-sort A_bool_fun_a_stream_a_stream_fun_fun$ 0)
(declare-sort Nat_nat_fun_nat_nat_nat_prod_fun_fun$ 0)
(declare-sort Nat_nat_fun_nat_nat_prod_nat_fun_fun$ 0)
(declare-sort Nat_nat_nat_prod_fun_nat_nat_fun_fun$ 0)
(declare-sort Nat_nat_prod_nat_nat_prod_stream_fun$ 0)
(declare-sort A_stream_a_stream_treeFI_bool_fun_fun$ 0)
(declare-sort A_treeFI_a_treeFI_treeFI_bool_fun_fun$ 0)
(declare-sort A_a_prod_bool_fun_a_a_prod_bool_fun_fun$ 0)
(declare-sort A_bool_stream_fun_a_bool_stream_fun_fun$ 0)
(declare-sort Nat_stream_stream_nat_stream_stream_fun$ 0)
(declare-sort A_a_prod_stream_a_stream_a_stream_fun_fun$ 0)
(declare-sort Nat_nat_fun_nat_nat_stream_stream_fun_fun$ 0)
(declare-sort Nat_nat_stream_fun_nat_nat_stream_fun_fun$ 0)
(declare-sort Nat_stream_nat_fun_nat_stream_nat_fun_fun$ 0)
(declare-sort Nat_nat_fun_nat_nat_nat_prod_stream_fun_fun$ 0)
(declare-sort Nat_nat_prod_stream_nat_nat_prod_stream_fun$ 0)
(declare-sort A_a_prod_stream_a_a_prod_stream_bool_fun_fun$ 0)
(declare-sort A_a_prod_stream_a_a_prod_treeFI_bool_fun_fun$ 0)
(declare-sort Nat_nat_fun_nat_nat_prod_nat_nat_prod_fun_fun$ 0)
(declare-sort Nat_nat_nat_prod_fun_nat_nat_nat_prod_fun_fun$ 0)
(declare-sort Nat_nat_prod_nat_fun_nat_nat_prod_nat_fun_fun$ 0)
(declare-sort A_bool_fun_a_stream_prod_a_stream_bool_fun_fun$ 0)
(declare-sort Nat_stream_nat_fun_nat_stream_nat_stream_fun_fun$ 0)
(declare-sort Nat_stream_nat_stream_fun_nat_stream_nat_fun_fun$ 0)
(declare-sort Nat_nat_stream_fun_nat_nat_nat_prod_stream_fun_fun$ 0)
(declare-sort A_bool_stream_fun_a_a_fun_a_bool_stream_fun_fun_fun$ 0)
(declare-sort Nat_nat_prod_nat_fun_nat_nat_prod_nat_nat_prod_fun_fun$ 0)
(declare-sort Nat_nat_prod_nat_nat_prod_fun_nat_nat_prod_nat_fun_fun$ 0)
(declare-sort Nat_nat_stream_stream_fun_nat_nat_stream_stream_fun_fun$ 0)
(declare-sort Nat_stream_nat_stream_fun_nat_stream_nat_stream_fun_fun$ 0)
(declare-sort Nat_nat_stream_fun_nat_nat_fun_nat_nat_stream_fun_fun_fun$ 0)
(declare-sort Nat_nat_nat_prod_stream_fun_nat_nat_nat_prod_stream_fun_fun$ 0)
(declare-sort Nat_nat_prod_nat_nat_prod_fun_nat_nat_prod_nat_nat_prod_fun_fun$ 0)
(declare-sort A_bool_fun_a_bool_stream_fun_a_a_fun_a_bool_stream_fun_fun_fun_fun$ 0)
(declare-sort Nat_nat_prod_nat_nat_prod_fun_nat_nat_prod_nat_nat_prod_stream_fun_fun$ 0)
(declare-sort Nat_nat_stream_stream_fun_nat_nat_fun_nat_nat_stream_stream_fun_fun_fun$ 0)
(declare-sort Nat_bool_fun_nat_nat_stream_fun_nat_nat_fun_nat_nat_stream_fun_fun_fun_fun$ 0)
(declare-sort Nat_nat_nat_prod_stream_fun_nat_nat_fun_nat_nat_nat_prod_stream_fun_fun_fun$ 0)
(declare-sort Nat_bool_fun_nat_nat_stream_stream_fun_nat_nat_fun_nat_nat_stream_stream_fun_fun_fun_fun$ 0)
(declare-sort Nat_bool_fun_nat_nat_nat_prod_stream_fun_nat_nat_fun_nat_nat_nat_prod_stream_fun_fun_fun_fun$ 0)
(declare-sort Nat_nat_prod_nat_nat_prod_stream_fun_nat_nat_prod_nat_nat_prod_fun_nat_nat_prod_nat_nat_prod_stream_fun_fun_fun$ 0)
(declare-sort Nat_nat_prod_bool_fun_nat_nat_prod_nat_nat_prod_stream_fun_nat_nat_prod_nat_nat_prod_fun_nat_nat_prod_nat_nat_prod_stream_fun_fun_fun_fun$ 0)
(declare-sort A_stream$ 0)
(declare-sort A_a_prod$ 0)
(declare-sort A_a_prod_stream$ 0)
(declare-sort A_a_prod_treeFI_list$ 0)
(declare-sort A_treeFI_list$ 0)
(declare-sort Nat_stream$ 0)
(declare-sort A_treeFI_treeFI_list$ 0)
(declare-sort A_stream_treeFI_list$ 0)
(declare-sort A_treeFI_stream$ 0)
(declare-sort A_stream_stream$ 0)
(declare-sort Nat_nat_prod$ 0)
(declare-sort Nat_nat_prod_stream$ 0)
(declare-sort Nat_stream_stream$ 0)
(declare-sort A_bool_fun_a_stream_prod$ 0)
(declare-sort A_list$ 0)
(declare-fun shd$ (A_stream$) A$)
(declare-fun stl$ (A_stream$) A_stream$)
(declare-fun sCons$ (A$ A_stream$) A_stream$)
(declare-fun fst$ (A_a_prod$) A$)
(declare-fun snd$ (A_a_prod$) A$)
(declare-fun pair$ (A$ A$) A_a_prod$)
(declare-fun shd$a (A_a_prod_stream$) A_a_prod$)
(declare-fun stl$a (A_a_prod_stream$) A_a_prod_stream$)
(declare-fun sCons$a (A_a_prod$ A_a_prod_stream$) A_a_prod_stream$)
(declare-fun nil$ () A_a_prod_treeFI_list$)
(declare-fun hd$ (A_a_prod_treeFI_list$) A_a_prod_treeFI$)
(declare-fun tl$ (A_a_prod_treeFI_list$) A_a_prod_treeFI_list$)
(declare-fun cons$ (A_a_prod_treeFI$ A_a_prod_treeFI_list$) A_a_prod_treeFI_list$)
(declare-fun nil$a () A_treeFI_list$)
(declare-fun hd$a (A_treeFI_list$) A_treeFI$)
(declare-fun tl$a (A_treeFI_list$) A_treeFI_list$)
(declare-fun cons$a (A_treeFI$ A_treeFI_list$) A_treeFI_list$)
(declare-fun shd$b (Nat_stream$) Nat$)
(declare-fun stl$b (Nat_stream$) Nat_stream$)
(declare-fun sCons$b (Nat$ Nat_stream$) Nat_stream$)
(declare-fun nil$b () A_treeFI_treeFI_list$)
(declare-fun hd$b (A_treeFI_treeFI_list$) A_treeFI_treeFI$)
(declare-fun tl$b (A_treeFI_treeFI_list$) A_treeFI_treeFI_list$)
(declare-fun cons$b (A_treeFI_treeFI$ A_treeFI_treeFI_list$) A_treeFI_treeFI_list$)
(declare-fun nil$c () A_stream_treeFI_list$)
(declare-fun hd$c (A_stream_treeFI_list$) A_stream_treeFI$)
(declare-fun tl$c (A_stream_treeFI_list$) A_stream_treeFI_list$)
(declare-fun cons$c (A_stream_treeFI$ A_stream_treeFI_list$) A_stream_treeFI_list$)
(declare-fun shd$c (A_treeFI_stream$) A_treeFI$)
(declare-fun stl$c (A_treeFI_stream$) A_treeFI_stream$)
(declare-fun sCons$c (A_treeFI$ A_treeFI_stream$) A_treeFI_stream$)
(declare-fun shd$d (A_stream_stream$) A_stream$)
(declare-fun stl$d (A_stream_stream$) A_stream_stream$)
(declare-fun sCons$d (A_stream$ A_stream_stream$) A_stream_stream$)
(declare-fun fst$a (Nat_nat_prod$) Nat$)
(declare-fun snd$a (Nat_nat_prod$) Nat$)
(declare-fun pair$a (Nat$ Nat$) Nat_nat_prod$)
(declare-fun shd$e (Nat_nat_prod_stream$) Nat_nat_prod$)
(declare-fun stl$e (Nat_nat_prod_stream$) Nat_nat_prod_stream$)
(declare-fun sCons$e (Nat_nat_prod$ Nat_nat_prod_stream$) Nat_nat_prod_stream$)
(declare-fun shd$f (Nat_stream_stream$) Nat_stream$)
(declare-fun stl$f (Nat_stream_stream$) Nat_stream_stream$)
(declare-fun sCons$f (Nat_stream$ Nat_stream_stream$) Nat_stream_stream$)
(declare-fun select$ (A_bool_fun_a_stream_prod$) A_bool_fun$)
(declare-fun selecta$ (A_bool_fun_a_stream_prod$) A_stream$)
(declare-fun pair$b (A_bool_fun$ A_stream$) A_bool_fun_a_stream_prod$)
(declare-fun nil$d () A_list$)
(declare-fun hd$d (A_list$) A$)
(declare-fun tl$d (A_list$) A_list$)
(declare-fun cons$d (A$ A_list$) A_list$)
(declare-fun as$ () A_stream$)
(declare-fun id$ () Nat_nat_fun$)
(declare-fun tr$ () A_treeFI$)
(declare-fun uu$ (A_treeFI_set$) A_treeFI_bool_fun$)
(declare-fun eps$ (A_treeFI_bool_fun$) A_treeFI$)
(declare-fun id$a () Nat_nat_fun_nat_nat_fun_fun$)
(declare-fun lab$ (A_treeFI$) A$)
(declare-fun set$ (A_treeFI_list$) A_treeFI_set$)
(declare-fun sub$ (A_treeFI$) A_treeFI_list$)
(declare-fun suc$ () Nat_nat_fun$)
(declare-fun uua$ (A_set$) A_bool_fun$)
(declare-fun uub$ (A_stream_set$) A_stream_bool_fun$)
(declare-fun uuc$ () Bool_bool_fun$)
(declare-fun uud$ (A_treeFI$) A_treeFI_bool_fun$)
(declare-fun uue$ () Nat_nat_fun$)
(declare-fun uuf$ () A_a_stream_a_fun_fun$)
(declare-fun uug$ () A_a_treeFI_list_a_fun_fun$)
(declare-fun uuh$ (Nat$) Nat_nat_fun$)
(declare-fun comp$ (Bool_bool_fun$) A_a_prod_bool_fun_a_a_prod_bool_fun_fun$)
(declare-fun lab$a (A_a_prod_treeFI$) A_a_prod$)
(declare-fun lab$b (A_treeFI_treeFI$) A_treeFI$)
(declare-fun lab$c (A_stream_treeFI$) A_stream$)
(declare-fun set$a (A_a_prod_treeFI_list$) A_a_prod_treeFI_set$)
(declare-fun set$b (A_treeFI_treeFI_list$) A_treeFI_treeFI_set$)
(declare-fun set$c (A_stream_treeFI_list$) A_stream_treeFI_set$)
(declare-fun smap$ (Nat_nat_fun$) Nat_stream_nat_stream_fun$)
(declare-fun snth$ (A_stream$ Nat$) A$)
(declare-fun sset$ (A_stream$) A_set$)
(declare-fun sub$a (A_a_prod_treeFI$) A_a_prod_treeFI_list$)
(declare-fun sub$b (A_treeFI_treeFI$) A_treeFI_treeFI_list$)
(declare-fun sub$c (A_stream_treeFI$) A_stream_treeFI_list$)
(declare-fun szip$ (A_stream$ A_stream$) A_a_prod_stream$)
(declare-fun tree$ (A$ A_treeFI_list$) A_treeFI$)
(declare-fun trev$ (A_treeFI$) A_treeFI$)
(declare-fun comp$a (Bool_bool_fun$) A_bool_fun_a_bool_fun_fun$)
(declare-fun comp$b (Nat_nat_prod_stream_nat_nat_prod_stream_fun$) Nat_nat_nat_prod_stream_fun_nat_nat_nat_prod_stream_fun_fun$)
(declare-fun comp$c (Nat_nat_prod_nat_nat_prod_fun$) Nat_nat_nat_prod_fun_nat_nat_nat_prod_fun_fun$)
(declare-fun comp$d (Nat_nat_prod_stream_nat_stream_fun$ Nat_nat_prod_nat_nat_prod_stream_fun$) Nat_nat_prod_nat_stream_fun$)
(declare-fun comp$e (Nat_nat_prod_nat_fun$) Nat_nat_prod_nat_nat_prod_fun_nat_nat_prod_nat_fun_fun$)
(declare-fun comp$f (Nat_stream_stream_nat_stream_stream_fun$) Nat_nat_stream_stream_fun_nat_nat_stream_stream_fun_fun$)
(declare-fun comp$g (Nat_stream_nat_stream_fun$) Nat_nat_stream_fun_nat_nat_stream_fun_fun$)
(declare-fun comp$h (Bool_stream_bool_stream_fun$) A_bool_stream_fun_a_bool_stream_fun_fun$)
(declare-fun comp$i (Nat_stream_nat_nat_prod_stream_fun$) Nat_nat_stream_fun_nat_nat_nat_prod_stream_fun_fun$)
(declare-fun comp$j (Nat_nat_nat_prod_fun$) Nat_nat_fun_nat_nat_nat_prod_fun_fun$)
(declare-fun comp$k (Nat_nat_fun$) Nat_nat_fun_nat_nat_fun_fun$)
(declare-fun comp$l (A_a_fun$) A_a_fun_a_a_fun_fun$)
(declare-fun comp$m (A_bool_fun$) A_a_fun_a_bool_fun_fun$)
(declare-fun comp$n (Bool_bool_fun$) Bool_bool_fun_bool_bool_fun_fun$)
(declare-fun comp$o (Nat_nat_stream_fun$) Nat_nat_fun_nat_nat_stream_fun_fun$)
(declare-fun comp$p (Nat_stream_nat_stream_fun$) Nat_stream_nat_stream_fun_nat_stream_nat_stream_fun_fun$)
(declare-fun comp$q (Nat_nat_fun$) Nat_nat_prod_nat_fun_nat_nat_prod_nat_fun_fun$)
(declare-fun comp$r (Nat_nat_prod_nat_fun$) Nat_nat_nat_prod_fun_nat_nat_fun_fun$)
(declare-fun comp$s (Nat_nat_nat_prod_fun$) Nat_nat_prod_nat_fun_nat_nat_prod_nat_nat_prod_fun_fun$)
(declare-fun comp$t (Nat_stream_nat_fun$) Nat_nat_stream_fun_nat_nat_fun_fun$)
(declare-fun comp$u (Nat_nat_stream_fun$) Nat_stream_nat_fun_nat_stream_nat_stream_fun_fun$)
(declare-fun comp$v (Nat_stream_nat_fun$) Nat_stream_nat_stream_fun_nat_stream_nat_fun_fun$)
(declare-fun comp$w (Nat_nat_fun$) Nat_stream_nat_fun_nat_stream_nat_fun_fun$)
(declare-fun comp$x (Nat_nat_prod_nat_nat_prod_fun$) Nat_nat_prod_nat_nat_prod_fun_nat_nat_prod_nat_nat_prod_fun_fun$)
(declare-fun sdrop$ (Nat$) A_stream_a_stream_fun$)
(declare-fun smap$a (A_a_prod_a_fun$ A_a_prod_stream$) A_stream$)
(declare-fun smap$b (A_a_fun$) A_stream_a_stream_fun$)
(declare-fun smap$c (A_a_prod_a_a_prod_fun$ A_a_prod_stream$) A_a_prod_stream$)
(declare-fun smap$d (A_a_a_prod_fun$ A_stream$) A_a_prod_stream$)
(declare-fun smap$e (Nat_nat_prod_nat_nat_prod_fun$) Nat_nat_prod_stream_nat_nat_prod_stream_fun$)
(declare-fun smap$f (Nat_nat_prod_nat_fun$) Nat_nat_prod_stream_nat_stream_fun$)
(declare-fun smap$g (Nat_stream_nat_stream_fun$) Nat_stream_stream_nat_stream_stream_fun$)
(declare-fun smap$h (Bool_bool_fun$) Bool_stream_bool_stream_fun$)
(declare-fun smap$i (Nat_nat_nat_prod_fun$) Nat_stream_nat_nat_prod_stream_fun$)
(declare-fun smap$j (Nat_nat_stream_fun$ Nat_stream$) Nat_stream_stream$)
(declare-fun smap$k (A_bool_fun$ A_stream$) Bool_stream$)
(declare-fun smap$l (A_treeFI_a_treeFI_fun$ A_treeFI_stream$) A_treeFI_stream$)
(declare-fun smap$m (A_treeFI_a_stream_fun$ A_treeFI_stream$) A_stream_stream$)
(declare-fun smap$n (A_stream_a_treeFI_fun$ A_stream_stream$) A_treeFI_stream$)
(declare-fun smap$o (A_stream_a_stream_fun$ A_stream_stream$) A_stream_stream$)
(declare-fun smap$p (A_treeFI_a_fun$ A_treeFI_stream$) A_stream$)
(declare-fun smap$q (A_stream_a_fun$ A_stream_stream$) A_stream$)
(declare-fun smap$r (A_a_treeFI_fun$ A_stream$) A_treeFI_stream$)
(declare-fun smap$s (A_a_stream_fun$ A_stream$) A_stream_stream$)
(declare-fun smap2$ (A_a_a_prod_a_fun_fun$ A_stream$ A_a_prod_stream$) A_stream$)
(declare-fun stake$ (Nat$ A_stream$) A_list$)
(declare-fun tree$a (A_treeFI$ A_treeFI_treeFI_list$) A_treeFI_treeFI$)
(declare-fun tree$b (A_stream$ A_stream_treeFI_list$) A_stream_treeFI$)
(declare-fun convol$ (Nat_nat_fun$) Nat_nat_fun_nat_nat_nat_prod_fun_fun$)
(declare-fun member$ (A_treeFI$ A_treeFI_set$) Bool)
(declare-fun smap2$a (A_a_prod_a_a_fun_fun$) A_a_prod_stream_a_stream_a_stream_fun_fun$)
(declare-fun smap2$b (A_a_prod_a_a_prod_a_fun_fun$ A_a_prod_stream$ A_a_prod_stream$) A_stream$)
(declare-fun smap2$c (A_a_a_a_prod_fun_fun$ A_stream$ A_stream$) A_a_prod_stream$)
(declare-fun smap2$d (A_a_a_prod_a_a_prod_fun_fun$ A_stream$ A_a_prod_stream$) A_a_prod_stream$)
(declare-fun smap2$e (A_a_prod_a_a_a_prod_fun_fun$ A_a_prod_stream$ A_stream$) A_a_prod_stream$)
(declare-fun smap2$f (A_a_prod_a_a_prod_a_a_prod_fun_fun$ A_a_prod_stream$ A_a_prod_stream$) A_a_prod_stream$)
(declare-fun smap2$g (A_a_a_fun_fun$) A_stream_a_stream_a_stream_fun_fun$)
(declare-fun collect$ (A_treeFI_bool_fun$) A_treeFI_set$)
(declare-fun fun_app$ (Bool_bool_fun$ Bool) Bool)
(declare-fun member$a (A_stream$ A_stream_set$) Bool)
(declare-fun member$b (A$ A_set$) Bool)
(declare-fun member$c (A_a_prod_treeFI$ A_a_prod_treeFI_set$) Bool)
(declare-fun member$d (A_treeFI_treeFI$ A_treeFI_treeFI_set$) Bool)
(declare-fun member$e (A_stream_treeFI$ A_stream_treeFI_set$) Bool)
(declare-fun member$f (A_treeFI_stream$ A_treeFI_stream_set$) Bool)
(declare-fun member$g (A_stream_stream$ A_stream_stream_set$) Bool)
(declare-fun member$h (A_a_prod_stream$ A_a_prod_stream_set$) Bool)
(declare-fun member$i (A_a_prod$ A_a_prod_set$) Bool)
(declare-fun member$j (Nat_stream$ Nat_stream_set$) Bool)
(declare-fun member$k (Nat$ Nat_set$) Bool)
(declare-fun sfilter$ (A_a_prod_bool_fun$ A_a_prod_stream$) A_a_prod_stream$)
(declare-fun smember$ (A$) A_stream_bool_fun$)
(declare-fun streams$ (A_treeFI_set$) A_treeFI_stream_set$)
(declare-fun collect$a (A_bool_fun$) A_set$)
(declare-fun collect$b (A_stream_bool_fun$) A_stream_set$)
(declare-fun fun_app$a (A_treeFI_bool_fun$ A_treeFI$) Bool)
(declare-fun fun_app$b (A_stream_bool_fun$ A_stream$) Bool)
(declare-fun fun_app$c (A_bool_fun$ A$) Bool)
(declare-fun fun_app$d (Nat_nat_fun$ Nat$) Nat$)
(declare-fun fun_app$e (A_stream_a_fun$ A_stream$) A$)
(declare-fun fun_app$f (A_a_stream_a_fun_fun$ A$) A_stream_a_fun$)
(declare-fun fun_app$g (A_treeFI_list_a_fun$ A_treeFI_list$) A$)
(declare-fun fun_app$h (A_a_treeFI_list_a_fun_fun$ A$) A_treeFI_list_a_fun$)
(declare-fun fun_app$i (A_a_prod_treeFI_bool_fun$ A_a_prod_treeFI$) Bool)
(declare-fun fun_app$j (A_a_prod_stream_a_a_prod_treeFI_bool_fun_fun$ A_a_prod_stream$) A_a_prod_treeFI_bool_fun$)
(declare-fun fun_app$k (A_stream_a_treeFI_bool_fun_fun$ A_stream$) A_treeFI_bool_fun$)
(declare-fun fun_app$l (A_stream_a_stream_fun$ A_stream$) A_stream$)
(declare-fun fun_app$m (Nat_nat_stream_fun$ Nat$) Nat_stream$)
(declare-fun fun_app$n (Nat_nat_fun_nat_nat_stream_fun_fun$ Nat_nat_fun$) Nat_nat_stream_fun$)
(declare-fun fun_app$o (Nat_nat_stream_fun_nat_nat_fun_nat_nat_stream_fun_fun_fun$ Nat_nat_stream_fun$) Nat_nat_fun_nat_nat_stream_fun_fun$)
(declare-fun fun_app$p (Nat_bool_fun_nat_nat_stream_fun_nat_nat_fun_nat_nat_stream_fun_fun_fun_fun$ Nat_bool_fun$) Nat_nat_stream_fun_nat_nat_fun_nat_nat_stream_fun_fun_fun$)
(declare-fun fun_app$q (A_a_prod_a_fun$ A_a_prod$) A$)
(declare-fun fun_app$r (A_a_a_prod_a_fun_fun$ A$) A_a_prod_a_fun$)
(declare-fun fun_app$s (A_a_prod_stream_a_stream_a_stream_fun_fun$ A_a_prod_stream$) A_stream_a_stream_fun$)
(declare-fun fun_app$t (A_a_fun$ A$) A$)
(declare-fun fun_app$u (A_a_prod_a_a_fun_fun$ A_a_prod$) A_a_fun$)
(declare-fun fun_app$v (A_a_prod_a_a_prod_a_fun_fun$ A_a_prod$) A_a_prod_a_fun$)
(declare-fun fun_app$w (A_a_a_prod_fun$ A$) A_a_prod$)
(declare-fun fun_app$x (A_a_a_a_prod_fun_fun$ A$) A_a_a_prod_fun$)
(declare-fun fun_app$y (A_a_prod_a_a_prod_fun$ A_a_prod$) A_a_prod$)
(declare-fun fun_app$z (A_a_a_prod_a_a_prod_fun_fun$ A$) A_a_prod_a_a_prod_fun$)
(declare-fun map_prod$ (Nat_nat_fun$) Nat_nat_fun_nat_nat_prod_nat_nat_prod_fun_fun$)
(declare-fun sfilter$a (A_bool_fun$) A_stream_a_stream_fun$)
(declare-fun smember$a (A_a_prod$) A_a_prod_stream_bool_fun$)
(declare-fun streams$a (A_stream_set$) A_stream_stream_set$)
(declare-fun streams$b (A_a_prod_set$) A_a_prod_stream_set$)
(declare-fun streams$c (A_set$) A_stream_set$)
(declare-fun streams$d (Nat_set$) Nat_stream_set$)
(declare-fun streamsp$ (A_bool_fun$) A_stream_bool_fun$)
(declare-fun fun_app$aa (A_a_prod_a_a_a_prod_fun_fun$ A_a_prod$) A_a_a_prod_fun$)
(declare-fun fun_app$ab (A_a_prod_a_a_prod_a_a_prod_fun_fun$ A_a_prod$) A_a_prod_a_a_prod_fun$)
(declare-fun fun_app$ac (A_stream_a_stream_a_stream_fun_fun$ A_stream$) A_stream_a_stream_fun$)
(declare-fun fun_app$ad (A_a_a_fun_fun$ A$) A_a_fun$)
(declare-fun fun_app$ae (Nat_bool_fun$ Nat$) Bool)
(declare-fun fun_app$af (A_a_prod_stream_bool_fun$ A_a_prod_stream$) Bool)
(declare-fun fun_app$ag (A_a_prod_stream_a_a_prod_stream_bool_fun_fun$ A_a_prod_stream$) A_a_prod_stream_bool_fun$)
(declare-fun fun_app$ah (A_stream_a_stream_bool_fun_fun$ A_stream$) A_stream_bool_fun$)
(declare-fun fun_app$ai (A_treeFI_a_fun$ A_treeFI$) A$)
(declare-fun fun_app$aj (A_a_prod_bool_fun$ A_a_prod$) Bool)
(declare-fun fun_app$ak (A_treeFI_treeFI_bool_fun$ A_treeFI_treeFI$) Bool)
(declare-fun fun_app$al (A_treeFI_a_treeFI_treeFI_bool_fun_fun$ A_treeFI$) A_treeFI_treeFI_bool_fun$)
(declare-fun fun_app$am (A_stream_treeFI_bool_fun$ A_stream_treeFI$) Bool)
(declare-fun fun_app$an (A_stream_a_stream_treeFI_bool_fun_fun$ A_stream$) A_stream_treeFI_bool_fun$)
(declare-fun fun_app$ao (A_a_treeFI_bool_fun_fun$ A$) A_treeFI_bool_fun$)
(declare-fun fun_app$ap (Nat_stream_nat_stream_fun$ Nat_stream$) Nat_stream$)
(declare-fun fun_app$aq (A_a_prod_bool_fun_a_a_prod_bool_fun_fun$ A_a_prod_bool_fun$) A_a_prod_bool_fun$)
(declare-fun fun_app$ar (A_bool_fun_a_bool_fun_fun$ A_bool_fun$) A_bool_fun$)
(declare-fun fun_app$as (Nat_nat_nat_prod_stream_fun_nat_nat_nat_prod_stream_fun_fun$ Nat_nat_nat_prod_stream_fun$) Nat_nat_nat_prod_stream_fun$)
(declare-fun fun_app$at (Nat_nat_fun_nat_nat_nat_prod_stream_fun_fun$ Nat_nat_fun$) Nat_nat_nat_prod_stream_fun$)
(declare-fun fun_app$au (Nat_nat_nat_prod_stream_fun_nat_nat_fun_nat_nat_nat_prod_stream_fun_fun_fun$ Nat_nat_nat_prod_stream_fun$) Nat_nat_fun_nat_nat_nat_prod_stream_fun_fun$)
(declare-fun fun_app$av (Nat_bool_fun_nat_nat_nat_prod_stream_fun_nat_nat_fun_nat_nat_nat_prod_stream_fun_fun_fun_fun$ Nat_bool_fun$) Nat_nat_nat_prod_stream_fun_nat_nat_fun_nat_nat_nat_prod_stream_fun_fun_fun$)
(declare-fun fun_app$aw (Nat_nat_nat_prod_fun_nat_nat_nat_prod_fun_fun$ Nat_nat_nat_prod_fun$) Nat_nat_nat_prod_fun$)
(declare-fun fun_app$ax (Nat_nat_prod_nat_nat_prod_fun_nat_nat_prod_nat_nat_prod_stream_fun_fun$ Nat_nat_prod_nat_nat_prod_fun$) Nat_nat_prod_nat_nat_prod_stream_fun$)
(declare-fun fun_app$ay (Nat_nat_prod_nat_nat_prod_stream_fun_nat_nat_prod_nat_nat_prod_fun_nat_nat_prod_nat_nat_prod_stream_fun_fun_fun$ Nat_nat_prod_nat_nat_prod_stream_fun$) Nat_nat_prod_nat_nat_prod_fun_nat_nat_prod_nat_nat_prod_stream_fun_fun$)
(declare-fun fun_app$az (Nat_nat_prod_bool_fun_nat_nat_prod_nat_nat_prod_stream_fun_nat_nat_prod_nat_nat_prod_fun_nat_nat_prod_nat_nat_prod_stream_fun_fun_fun_fun$ Nat_nat_prod_bool_fun$) Nat_nat_prod_nat_nat_prod_stream_fun_nat_nat_prod_nat_nat_prod_fun_nat_nat_prod_nat_nat_prod_stream_fun_fun_fun$)
(declare-fun fun_app$ba (Nat_nat_prod_nat_nat_prod_fun_nat_nat_prod_nat_fun_fun$ Nat_nat_prod_nat_nat_prod_fun$) Nat_nat_prod_nat_fun$)
(declare-fun fun_app$bb (Nat_nat_stream_stream_fun_nat_nat_stream_stream_fun_fun$ Nat_nat_stream_stream_fun$) Nat_nat_stream_stream_fun$)
(declare-fun fun_app$bc (Nat_nat_fun_nat_nat_stream_stream_fun_fun$ Nat_nat_fun$) Nat_nat_stream_stream_fun$)
(declare-fun fun_app$bd (Nat_nat_stream_stream_fun_nat_nat_fun_nat_nat_stream_stream_fun_fun_fun$ Nat_nat_stream_stream_fun$) Nat_nat_fun_nat_nat_stream_stream_fun_fun$)
(declare-fun fun_app$be (Nat_bool_fun_nat_nat_stream_stream_fun_nat_nat_fun_nat_nat_stream_stream_fun_fun_fun_fun$ Nat_bool_fun$) Nat_nat_stream_stream_fun_nat_nat_fun_nat_nat_stream_stream_fun_fun_fun$)
(declare-fun fun_app$bf (Nat_nat_stream_fun_nat_nat_stream_fun_fun$ Nat_nat_stream_fun$) Nat_nat_stream_fun$)
(declare-fun fun_app$bg (A_bool_stream_fun_a_bool_stream_fun_fun$ A_bool_stream_fun$) A_bool_stream_fun$)
(declare-fun fun_app$bh (A_a_fun_a_bool_stream_fun_fun$ A_a_fun$) A_bool_stream_fun$)
(declare-fun fun_app$bi (A_bool_stream_fun_a_a_fun_a_bool_stream_fun_fun_fun$ A_bool_stream_fun$) A_a_fun_a_bool_stream_fun_fun$)
(declare-fun fun_app$bj (A_bool_fun_a_bool_stream_fun_a_a_fun_a_bool_stream_fun_fun_fun_fun$ A_bool_fun$) A_bool_stream_fun_a_a_fun_a_bool_stream_fun_fun_fun$)
(declare-fun fun_app$bk (Nat_nat_stream_fun_nat_nat_nat_prod_stream_fun_fun$ Nat_nat_stream_fun$) Nat_nat_nat_prod_stream_fun$)
(declare-fun fun_app$bl (Nat_nat_fun_nat_nat_nat_prod_fun_fun$ Nat_nat_fun$) Nat_nat_nat_prod_fun$)
(declare-fun fun_app$bm (Nat_nat_fun_nat_nat_fun_fun$ Nat_nat_fun$) Nat_nat_fun$)
(declare-fun fun_app$bn (Nat_nat_prod_stream_nat_nat_prod_stream_fun$ Nat_nat_prod_stream$) Nat_nat_prod_stream$)
(declare-fun fun_app$bo (Nat_stream_nat_nat_prod_stream_fun$ Nat_stream$) Nat_nat_prod_stream$)
(declare-fun fun_app$bp (Nat_nat_prod_stream_nat_stream_fun$ Nat_nat_prod_stream$) Nat_stream$)
(declare-fun fun_app$bq (Nat_stream_stream_nat_stream_stream_fun$ Nat_stream_stream$) Nat_stream_stream$)
(declare-fun fun_app$br (Bool_stream_bool_stream_fun$ Bool_stream$) Bool_stream$)
(declare-fun fun_app$bs (A_a_fun_a_a_fun_fun$ A_a_fun$) A_a_fun$)
(declare-fun fun_app$bt (A_treeFI_a_treeFI_fun$ A_treeFI$) A_treeFI$)
(declare-fun fun_app$bu (A_treeFI_a_stream_fun$ A_treeFI$) A_stream$)
(declare-fun fun_app$bv (A_stream_a_treeFI_fun$ A_stream$) A_treeFI$)
(declare-fun fun_app$bw (A_a_treeFI_fun$ A$) A_treeFI$)
(declare-fun fun_app$bx (A_a_stream_fun$ A$) A_stream$)
(declare-fun fun_app$by (A_treeFI_stream_bool_fun$ A_treeFI_stream$) Bool)
(declare-fun fun_app$bz (A_stream_stream_bool_fun$ A_stream_stream$) Bool)
(declare-fun fun_app$ca (Nat_nat_nat_prod_fun$ Nat$) Nat_nat_prod$)
(declare-fun fun_app$cb (Nat_nat_prod_nat_nat_prod_fun$ Nat_nat_prod$) Nat_nat_prod$)
(declare-fun fun_app$cc (Nat_nat_prod_nat_fun$ Nat_nat_prod$) Nat$)
(declare-fun fun_app$cd (A_a_fun_a_bool_fun_fun$ A_a_fun$) A_bool_fun$)
(declare-fun fun_app$ce (Bool_bool_fun_bool_bool_fun_fun$ Bool_bool_fun$) Bool_bool_fun$)
(declare-fun fun_app$cf (Nat_stream_nat_stream_fun_nat_stream_nat_stream_fun_fun$ Nat_stream_nat_stream_fun$) Nat_stream_nat_stream_fun$)
(declare-fun fun_app$cg (Nat_nat_prod_nat_fun_nat_nat_prod_nat_fun_fun$ Nat_nat_prod_nat_fun$) Nat_nat_prod_nat_fun$)
(declare-fun fun_app$ch (Nat_nat_nat_prod_fun_nat_nat_fun_fun$ Nat_nat_nat_prod_fun$) Nat_nat_fun$)
(declare-fun fun_app$ci (Nat_nat_prod_nat_fun_nat_nat_prod_nat_nat_prod_fun_fun$ Nat_nat_prod_nat_fun$) Nat_nat_prod_nat_nat_prod_fun$)
(declare-fun fun_app$cj (Nat_nat_stream_fun_nat_nat_fun_fun$ Nat_nat_stream_fun$) Nat_nat_fun$)
(declare-fun fun_app$ck (Nat_stream_nat_fun_nat_stream_nat_stream_fun_fun$ Nat_stream_nat_fun$) Nat_stream_nat_stream_fun$)
(declare-fun fun_app$cl (Nat_stream_nat_stream_fun_nat_stream_nat_fun_fun$ Nat_stream_nat_stream_fun$) Nat_stream_nat_fun$)
(declare-fun fun_app$cm (Nat_stream_nat_fun_nat_stream_nat_fun_fun$ Nat_stream_nat_fun$) Nat_stream_nat_fun$)
(declare-fun fun_app$cn (Nat_nat_prod_nat_nat_prod_fun_nat_nat_prod_nat_nat_prod_fun_fun$ Nat_nat_prod_nat_nat_prod_fun$) Nat_nat_prod_nat_nat_prod_fun$)
(declare-fun fun_app$co (A_a_stream_bool_fun_fun$ A$) A_stream_bool_fun$)
(declare-fun fun_app$cp (A_bool_fun_a_stream_a_stream_fun_fun$ A_bool_fun$) A_stream_a_stream_fun$)
(declare-fun fun_app$cq (A_bool_fun_a_stream_prod_a_stream_bool_fun_fun$ A_bool_fun_a_stream_prod$) A_stream_bool_fun$)
(declare-fun fun_app$cr (Nat_nat_fun_nat_nat_prod_nat_nat_prod_fun_fun$ Nat_nat_fun$) Nat_nat_prod_nat_nat_prod_fun$)
(declare-fun fun_app$cs (Nat_nat_fun_nat_nat_prod_nat_fun_fun$ Nat_nat_fun$) Nat_nat_prod_nat_fun$)
(declare-fun konigPath$ (A_a_prod_treeFI$) A_a_prod_stream$)
(declare-fun size_prod$ (Nat_nat_fun$) Nat_nat_fun_nat_nat_prod_nat_fun_fun$)
(declare-fun streamsp$a (A_a_prod_bool_fun$) A_a_prod_stream_bool_fun$)
(declare-fun undefined$ () A_stream$)
(declare-fun infiniteTr$ (A_treeFI$) Bool)
(declare-fun konigPath$a (A_treeFI$) A_stream$)
(declare-fun properPath$ (A_stream$) A_treeFI_bool_fun$)
(declare-fun set_treeFI$ (A_treeFI_treeFI$) A_treeFI_set$)
(declare-fun stream_all$ (A_bool_fun$) A_stream_bool_fun$)
(declare-fun case_stream$ (A_a_stream_a_fun_fun$) A_stream_a_fun$)
(declare-fun case_treeFI$ (A_a_treeFI_list_a_fun_fun$) A_treeFI_a_fun$)
(declare-fun pred_stream$ (A_bool_fun$) A_stream_bool_fun$)
(declare-fun properPath$a (A_a_prod_stream$ A_a_prod_treeFI$) Bool)
(declare-fun sdrop_while$ (A_a_prod_bool_fun$ A_a_prod_stream$) A_a_prod_stream$)
(declare-fun set_treeFI$a (A_stream_treeFI$) A_stream_set$)
(declare-fun set_treeFI$b (A_treeFI$) A_set$)
(declare-fun sinterleave$ (A_a_prod_stream$ A_a_prod_stream$) A_a_prod_stream$)
(declare-fun stream_all$a (A_a_prod_bool_fun$) A_a_prod_stream_bool_fun$)
(declare-fun corec_stream$ (Nat_nat_fun$) Nat_bool_fun_nat_nat_stream_fun_nat_nat_fun_nat_nat_stream_fun_fun_fun_fun$)
(declare-fun pred_stream$a (A_a_prod_bool_fun$) A_a_prod_stream_bool_fun$)
(declare-fun sdrop_while$a (A_bool_fun$) A_stream_a_stream_fun$)
(declare-fun sinterleave$a (A_stream$) A_stream_a_stream_fun$)
(declare-fun corec_stream$a (Nat_nat_nat_prod_fun$) Nat_bool_fun_nat_nat_nat_prod_stream_fun_nat_nat_fun_nat_nat_nat_prod_stream_fun_fun_fun_fun$)
(declare-fun corec_stream$b (Nat_nat_prod_nat_nat_prod_fun$) Nat_nat_prod_bool_fun_nat_nat_prod_nat_nat_prod_stream_fun_nat_nat_prod_nat_nat_prod_fun_nat_nat_prod_nat_nat_prod_stream_fun_fun_fun_fun$)
(declare-fun corec_stream$c (Nat_nat_prod_nat_fun$ Nat_nat_prod_bool_fun$ Nat_nat_prod_nat_stream_fun$ Nat_nat_prod_nat_nat_prod_fun$) Nat_nat_prod_nat_stream_fun$)
(declare-fun corec_stream$d (Nat_nat_stream_fun$) Nat_bool_fun_nat_nat_stream_stream_fun_nat_nat_fun_nat_nat_stream_stream_fun_fun_fun_fun$)
(declare-fun corec_stream$e (A_bool_fun$) A_bool_fun_a_bool_stream_fun_a_a_fun_a_bool_stream_fun_fun_fun_fun$)
(assert (not (not (and (= (shd$ as$) (lab$ tr$)) (not (forall ((?v4 A_treeFI$)) (or (not (member$ ?v4 (set$ (sub$ tr$)))) (not (fun_app$a (properPath$ (stl$ as$)) ?v4)))))))))
(assert (not (= (shd$ as$) (lab$ tr$))))
(assert (or (= (shd$ as$) (lab$ tr$)) (not (and (= (shd$ as$) (lab$ tr$)) (not (forall ((?v4 A_treeFI$)) (or (not (member$ ?v4 (set$ (sub$ tr$)))) (not (fun_app$a (properPath$ (stl$ as$)) ?v4)))))))))
(check-sat)
(exit)
